NAME
ROWS
 N  OBJ
 L  c1
COLUMNS
    MARKER    'MARKER'                 'INTORG'
    x         c1        1
    x         OBJ       -1
    y         c1        1
    MARKER    'MARKER'                 'INTEND'
RHS
    rhs       c1        1.5
RANGES
BOUNDS
 LO bounds    x         0
 UP bounds    x         2
 LO bounds    y         0
 UP bounds    y         2
ENDATA
